Minimize
  3.973 x0,1 + 10.294 x0,2 + 4.94 x0,3 + 10.877 x0,4 + 7.277 x0,5
   + 20.141 x0,6 + 8.102 x0,7 + 25.527 x0,8 + 6.849 x0,9 + 13.486 x0,10
   + 14.368 x0,11 + 20.289 x0,12 + 16.18 x0,13 + 19.733 x0,14
   + 18.246 x0,15 + 26.054 x0,16 + 14.665 x0,17 + 13.107 x0,18
   + 46.14 x0,19 + 3.973 x1,0 + 13.172 x1,2 + 0.993 x1,3 + 13.579 x1,4
   + 3.338 x1,5 + 22.331 x1,6 + 4.404 x1,7 + 26.524 x1,8 + 4.496 x1,9
   + 9.617 x1,10 + 10.64 x1,11 + 16.318 x1,12 + 13.437 x1,13 + 18.286 x1,14
   + 17.462 x1,15 + 23.945 x1,16 + 14.032 x1,17 + 12.674 x1,18
   + 48.368 x1,19 + 10.294 x2,0 + 13.172 x2,1 + 13.805 x2,3 + 0.893 x2,4
   + 15.595 x2,5 + 10.186 x2,6 + 15.453 x2,7 + 17.261 x2,8 + 12.42 x2,9
   + 20.473 x2,10 + 20.571 x2,11 + 27.82 x2,12 + 18.909 x2,13
   + 18.186 x2,14 + 15.277 x2,15 + 25.434 x2,16 + 12.371 x2,17
   + 10.958 x2,18 + 35.948 x2,19 + 4.94 x3,0 + 0.993 x3,1 + 13.805 x3,2
   + 14.166 x3,4 + 2.348 x3,5 + 22.738 x3,6 + 3.453 x3,7 + 26.611 x3,8
   + 4.048 x3,9 + 8.624 x3,10 + 9.66 x3,11 + 15.352 x3,12 + 12.662 x3,13
   + 17.802 x3,14 + 17.15 x3,15 + 23.28 x3,16 + 13.791 x3,17 + 12.503 x3,18
   + 48.738 x3,19 + 10.877 x4,0 + 13.579 x4,1 + 0.893 x4,2 + 14.166 x4,3
   + 15.868 x4,5 + 9.425 x4,6 + 15.636 x4,7 + 16.372 x4,8 + 12.536 x4,9
   + 20.545 x4,10 + 20.568 x4,11 + 27.893 x4,12 + 18.625 x4,13
   + 17.58 x4,14 + 14.605 x4,15 + 24.834 x4,16 + 11.802 x4,17
   + 10.443 x4,18 + 35.289 x4,19 + 7.277 x5,0 + 3.338 x5,1 + 15.595 x5,2
   + 2.348 x5,3 + 15.868 x5,4 + 24.023 x5,6 + 1.629 x5,7 + 27.175 x5,8
   + 4.112 x5,9 + 6.296 x5,10 + 7.419 x5,11 + 13.035 x5,12 + 11.145 x5,13
   + 17.051 x5,14 + 16.848 x5,15 + 21.992 x5,16 + 13.719 x5,17
   + 12.628 x5,18 + 49.876 x5,19 + 20.141 x6,0 + 22.331 x6,1 + 10.186 x6,2
   + 22.738 x6,3 + 9.425 x6,4 + 24.023 x6,5 + 23.381 x6,7 + 9.096 x6,8
   + 20.136 x6,9 + 27.455 x6,10 + 26.989 x6,11 + 34.557 x6,12
   + 23.028 x6,13 + 18.632 x6,14 + 15.234 x6,15 + 25.22 x6,16
   + 14.452 x6,17 + 14.025 x6,18 + 26.056 x6,19 + 8.102 x7,0 + 4.404 x7,1
   + 15.453 x7,2 + 3.453 x7,3 + 15.636 x7,4 + 1.629 x7,5 + 23.381 x7,6
   + 26.065 x7,8 + 3.245 x7,9 + 5.445 x7,10 + 6.275 x7,11 + 12.587 x7,12
   + 9.528 x7,13 + 15.479 x7,14 + 15.4 x7,15 + 20.364 x7,16 + 12.377 x7,17
   + 11.386 x7,18 + 49.072 x7,19 + 25.527 x8,0 + 26.524 x8,1 + 17.261 x8,2
   + 26.611 x8,3 + 16.372 x8,4 + 27.175 x8,5 + 9.096 x8,6 + 26.065 x8,7
   + 23.066 x8,9 + 28.708 x8,10 + 27.723 x8,11 + 34.969 x8,12 + 22.16 x8,13
   + 15.411 x8,14 + 12.68 x8,15 + 20.203 x8,16 + 14.169 x8,17
   + 14.771 x8,18 + 24.374 x8,19 + 6.849 x9,0 + 4.496 x9,1 + 12.42 x9,2
   + 4.048 x9,3 + 12.536 x9,4 + 4.112 x9,5 + 20.136 x9,6 + 3.245 x9,7
   + 23.066 x9,8 + 8.072 x9,10 + 8.375 x9,11 + 15.41 x9,12 + 9.341 x9,13
   + 13.794 x9,14 + 13.114 x9,15 + 19.539 x9,16 + 9.806 x9,17 + 8.605 x9,18
   + 45.861 x9,19 + 13.486 x10,0 + 9.617 x10,1 + 20.473 x10,2 + 8.624 x10,3
   + 20.545 x10,4 + 6.296 x10,5 + 27.455 x10,6 + 5.445 x10,7 + 28.708 x10,8
   + 8.072 x10,9 + 1.751 x10,11 + 7.349 x10,12 + 8.1 x10,13 + 15.634 x10,14
   + 16.706 x10,15 + 18.647 x10,16 + 14.539 x10,17 + 14.09 x10,18
   + 52.518 x10,19 + 14.368 x11,0 + 10.64 x11,1 + 20.571 x11,2 + 9.66 x11,3
   + 20.568 x11,4 + 7.419 x11,5 + 26.989 x11,6 + 6.275 x11,7 + 27.723 x11,8
   + 8.375 x11,9 + 1.751 x11,10 + 7.568 x11,12 + 6.529 x11,13
   + 14.182 x11,14 + 15.485 x11,15 + 16.924 x11,16 + 13.587 x11,17
   + 13.312 x11,18 + 51.719 x11,19 + 20.289 x12,0 + 16.318 x12,1
   + 27.82 x12,2 + 15.352 x12,3 + 27.893 x12,4 + 13.035 x12,5
   + 34.557 x12,6 + 12.587 x12,7 + 34.969 x12,8 + 15.41 x12,9
   + 7.349 x12,10 + 7.568 x12,11 + 12.948 x12,13 + 20.546 x12,14
   + 22.446 x12,15 + 21.228 x12,16 + 20.964 x12,17 + 20.818 x12,18
   + 59.132 x12,19 + 16.18 x13,0 + 13.437 x13,1 + 18.909 x13,2
   + 12.662 x13,3 + 18.625 x13,4 + 11.145 x13,5 + 23.028 x13,6
   + 9.528 x13,7 + 22.16 x13,8 + 9.341 x13,9 + 8.1 x13,10 + 6.529 x13,11
   + 12.948 x13,12 + 7.729 x13,14 + 9.53 x13,15 + 10.936 x13,16
   + 8.639 x13,17 + 9.053 x13,18 + 46.471 x13,19 + 19.733 x14,0
   + 18.286 x14,1 + 18.186 x14,2 + 17.802 x14,3 + 17.58 x14,4
   + 17.051 x14,5 + 18.632 x14,6 + 15.479 x14,7 + 15.411 x14,8
   + 13.794 x14,9 + 15.634 x14,10 + 14.182 x14,11 + 20.546 x14,12
   + 7.729 x14,13 + 3.407 x14,15 + 7.254 x14,16 + 5.858 x14,17
   + 7.412 x14,18 + 39.737 x14,19 + 18.246 x15,0 + 17.462 x15,1
   + 15.277 x15,2 + 17.15 x15,3 + 14.605 x15,4 + 16.848 x15,5
   + 15.234 x15,6 + 15.4 x15,7 + 12.68 x15,8 + 13.114 x15,9 + 16.706 x15,10
   + 15.485 x15,11 + 22.446 x15,12 + 9.53 x15,13 + 3.407 x15,14
   + 10.435 x15,16 + 3.586 x15,17 + 5.186 x15,18 + 37.046 x15,19
   + 26.054 x16,0 + 23.945 x16,1 + 25.434 x16,2 + 23.28 x16,3
   + 24.834 x16,4 + 21.992 x16,5 + 25.22 x16,6 + 20.364 x16,7
   + 20.203 x16,8 + 19.539 x16,9 + 18.647 x16,10 + 16.924 x16,11
   + 21.228 x16,12 + 10.936 x16,13 + 7.254 x16,14 + 10.435 x16,15
   + 13.075 x16,17 + 14.573 x16,18 + 43.648 x16,19 + 14.665 x17,0
   + 14.032 x17,1 + 12.371 x17,2 + 13.791 x17,3 + 11.802 x17,4
   + 13.719 x17,5 + 14.452 x17,6 + 12.377 x17,7 + 14.169 x17,8
   + 9.806 x17,9 + 14.539 x17,10 + 13.587 x17,11 + 20.964 x17,12
   + 8.639 x17,13 + 5.858 x17,14 + 3.586 x17,15 + 13.075 x17,16
   + 1.628 x17,18 + 38.169 x17,19 + 13.107 x18,0 + 12.674 x18,1
   + 10.958 x18,2 + 12.503 x18,3 + 10.443 x18,4 + 12.628 x18,5
   + 14.025 x18,6 + 11.386 x18,7 + 14.771 x18,8 + 8.605 x18,9
   + 14.09 x18,10 + 13.312 x18,11 + 20.818 x18,12 + 9.053 x18,13
   + 7.412 x18,14 + 5.186 x18,15 + 14.573 x18,16 + 1.628 x18,17
   + 38.435 x18,19 + 46.14 x19,0 + 48.368 x19,1 + 35.948 x19,2
   + 48.738 x19,3 + 35.289 x19,4 + 49.876 x19,5 + 26.056 x19,6
   + 49.072 x19,7 + 24.374 x19,8 + 45.861 x19,9 + 52.518 x19,10
   + 51.719 x19,11 + 59.132 x19,12 + 46.471 x19,13 + 39.737 x19,14
   + 37.046 x19,15 + 43.648 x19,16 + 38.169 x19,17 + 38.435 x19,18
Subject To
 c_1_0: x0,1 + x0,2 + x0,3 + x0,4 + x0,5 + x0,6 + x0,7 + x0,8 + x0,9
   + x0,10 + x0,11 + x0,12 + x0,13 + x0,14 + x0,15 + x0,16 + x0,17 + x0,18
   + x0,19 = 1
 c_1_1: x1,0 + x1,2 + x1,3 + x1,4 + x1,5 + x1,6 + x1,7 + x1,8 + x1,9
   + x1,10 + x1,11 + x1,12 + x1,13 + x1,14 + x1,15 + x1,16 + x1,17 + x1,18
   + x1,19 = 1
 c_1_2: x2,0 + x2,1 + x2,3 + x2,4 + x2,5 + x2,6 + x2,7 + x2,8 + x2,9
   + x2,10 + x2,11 + x2,12 + x2,13 + x2,14 + x2,15 + x2,16 + x2,17 + x2,18
   + x2,19 = 1
 c_1_3: x3,0 + x3,1 + x3,2 + x3,4 + x3,5 + x3,6 + x3,7 + x3,8 + x3,9
   + x3,10 + x3,11 + x3,12 + x3,13 + x3,14 + x3,15 + x3,16 + x3,17 + x3,18
   + x3,19 = 1
 c_1_4: x4,0 + x4,1 + x4,2 + x4,3 + x4,5 + x4,6 + x4,7 + x4,8 + x4,9
   + x4,10 + x4,11 + x4,12 + x4,13 + x4,14 + x4,15 + x4,16 + x4,17 + x4,18
   + x4,19 = 1
 c_1_5: x5,0 + x5,1 + x5,2 + x5,3 + x5,4 + x5,6 + x5,7 + x5,8 + x5,9
   + x5,10 + x5,11 + x5,12 + x5,13 + x5,14 + x5,15 + x5,16 + x5,17 + x5,18
   + x5,19 = 1
 c_1_6: x6,0 + x6,1 + x6,2 + x6,3 + x6,4 + x6,5 + x6,7 + x6,8 + x6,9
   + x6,10 + x6,11 + x6,12 + x6,13 + x6,14 + x6,15 + x6,16 + x6,17 + x6,18
   + x6,19 = 1
 c_1_7: x7,0 + x7,1 + x7,2 + x7,3 + x7,4 + x7,5 + x7,6 + x7,8 + x7,9
   + x7,10 + x7,11 + x7,12 + x7,13 + x7,14 + x7,15 + x7,16 + x7,17 + x7,18
   + x7,19 = 1
 c_1_8: x8,0 + x8,1 + x8,2 + x8,3 + x8,4 + x8,5 + x8,6 + x8,7 + x8,9
   + x8,10 + x8,11 + x8,12 + x8,13 + x8,14 + x8,15 + x8,16 + x8,17 + x8,18
   + x8,19 = 1
 c_1_9: x9,0 + x9,1 + x9,2 + x9,3 + x9,4 + x9,5 + x9,6 + x9,7 + x9,8
   + x9,10 + x9,11 + x9,12 + x9,13 + x9,14 + x9,15 + x9,16 + x9,17 + x9,18
   + x9,19 = 1
 c_1_10: x10,0 + x10,1 + x10,2 + x10,3 + x10,4 + x10,5 + x10,6 + x10,7
   + x10,8 + x10,9 + x10,11 + x10,12 + x10,13 + x10,14 + x10,15 + x10,16
   + x10,17 + x10,18 + x10,19 = 1
 c_1_11: x11,0 + x11,1 + x11,2 + x11,3 + x11,4 + x11,5 + x11,6 + x11,7
   + x11,8 + x11,9 + x11,10 + x11,12 + x11,13 + x11,14 + x11,15 + x11,16
   + x11,17 + x11,18 + x11,19 = 1
 c_1_12: x12,0 + x12,1 + x12,2 + x12,3 + x12,4 + x12,5 + x12,6 + x12,7
   + x12,8 + x12,9 + x12,10 + x12,11 + x12,13 + x12,14 + x12,15 + x12,16
   + x12,17 + x12,18 + x12,19 = 1
 c_1_13: x13,0 + x13,1 + x13,2 + x13,3 + x13,4 + x13,5 + x13,6 + x13,7
   + x13,8 + x13,9 + x13,10 + x13,11 + x13,12 + x13,14 + x13,15 + x13,16
   + x13,17 + x13,18 + x13,19 = 1
 c_1_14: x14,0 + x14,1 + x14,2 + x14,3 + x14,4 + x14,5 + x14,6 + x14,7
   + x14,8 + x14,9 + x14,10 + x14,11 + x14,12 + x14,13 + x14,15 + x14,16
   + x14,17 + x14,18 + x14,19 = 1
 c_1_15: x15,0 + x15,1 + x15,2 + x15,3 + x15,4 + x15,5 + x15,6 + x15,7
   + x15,8 + x15,9 + x15,10 + x15,11 + x15,12 + x15,13 + x15,14 + x15,16
   + x15,17 + x15,18 + x15,19 = 1
 c_1_16: x16,0 + x16,1 + x16,2 + x16,3 + x16,4 + x16,5 + x16,6 + x16,7
   + x16,8 + x16,9 + x16,10 + x16,11 + x16,12 + x16,13 + x16,14 + x16,15
   + x16,17 + x16,18 + x16,19 = 1
 c_1_17: x17,0 + x17,1 + x17,2 + x17,3 + x17,4 + x17,5 + x17,6 + x17,7
   + x17,8 + x17,9 + x17,10 + x17,11 + x17,12 + x17,13 + x17,14 + x17,15
   + x17,16 + x17,18 + x17,19 = 1
 c_1_18: x18,0 + x18,1 + x18,2 + x18,3 + x18,4 + x18,5 + x18,6 + x18,7
   + x18,8 + x18,9 + x18,10 + x18,11 + x18,12 + x18,13 + x18,14 + x18,15
   + x18,16 + x18,17 + x18,19 = 1
 c_1_19: x19,0 + x19,1 + x19,2 + x19,3 + x19,4 + x19,5 + x19,6 + x19,7
   + x19,8 + x19,9 + x19,10 + x19,11 + x19,12 + x19,13 + x19,14 + x19,15
   + x19,16 + x19,17 + x19,18 = 1
 c_2_0: x1,0 + x2,0 + x3,0 + x4,0 + x5,0 + x6,0 + x7,0 + x8,0 + x9,0
   + x10,0 + x11,0 + x12,0 + x13,0 + x14,0 + x15,0 + x16,0 + x17,0 + x18,0
   + x19,0 = 1
 c_2_1: x0,1 + x2,1 + x3,1 + x4,1 + x5,1 + x6,1 + x7,1 + x8,1 + x9,1
   + x10,1 + x11,1 + x12,1 + x13,1 + x14,1 + x15,1 + x16,1 + x17,1 + x18,1
   + x19,1 = 1
 c_2_2: x0,2 + x1,2 + x3,2 + x4,2 + x5,2 + x6,2 + x7,2 + x8,2 + x9,2
   + x10,2 + x11,2 + x12,2 + x13,2 + x14,2 + x15,2 + x16,2 + x17,2 + x18,2
   + x19,2 = 1
 c_2_3: x0,3 + x1,3 + x2,3 + x4,3 + x5,3 + x6,3 + x7,3 + x8,3 + x9,3
   + x10,3 + x11,3 + x12,3 + x13,3 + x14,3 + x15,3 + x16,3 + x17,3 + x18,3
   + x19,3 = 1
 c_2_4: x0,4 + x1,4 + x2,4 + x3,4 + x5,4 + x6,4 + x7,4 + x8,4 + x9,4
   + x10,4 + x11,4 + x12,4 + x13,4 + x14,4 + x15,4 + x16,4 + x17,4 + x18,4
   + x19,4 = 1
 c_2_5: x0,5 + x1,5 + x2,5 + x3,5 + x4,5 + x6,5 + x7,5 + x8,5 + x9,5
   + x10,5 + x11,5 + x12,5 + x13,5 + x14,5 + x15,5 + x16,5 + x17,5 + x18,5
   + x19,5 = 1
 c_2_6: x0,6 + x1,6 + x2,6 + x3,6 + x4,6 + x5,6 + x7,6 + x8,6 + x9,6
   + x10,6 + x11,6 + x12,6 + x13,6 + x14,6 + x15,6 + x16,6 + x17,6 + x18,6
   + x19,6 = 1
 c_2_7: x0,7 + x1,7 + x2,7 + x3,7 + x4,7 + x5,7 + x6,7 + x8,7 + x9,7
   + x10,7 + x11,7 + x12,7 + x13,7 + x14,7 + x15,7 + x16,7 + x17,7 + x18,7
   + x19,7 = 1
 c_2_8: x0,8 + x1,8 + x2,8 + x3,8 + x4,8 + x5,8 + x6,8 + x7,8 + x9,8
   + x10,8 + x11,8 + x12,8 + x13,8 + x14,8 + x15,8 + x16,8 + x17,8 + x18,8
   + x19,8 = 1
 c_2_9: x0,9 + x1,9 + x2,9 + x3,9 + x4,9 + x5,9 + x6,9 + x7,9 + x8,9
   + x10,9 + x11,9 + x12,9 + x13,9 + x14,9 + x15,9 + x16,9 + x17,9 + x18,9
   + x19,9 = 1
 c_2_10: x0,10 + x1,10 + x2,10 + x3,10 + x4,10 + x5,10 + x6,10 + x7,10
   + x8,10 + x9,10 + x11,10 + x12,10 + x13,10 + x14,10 + x15,10 + x16,10
   + x17,10 + x18,10 + x19,10 = 1
 c_2_11: x0,11 + x1,11 + x2,11 + x3,11 + x4,11 + x5,11 + x6,11 + x7,11
   + x8,11 + x9,11 + x10,11 + x12,11 + x13,11 + x14,11 + x15,11 + x16,11
   + x17,11 + x18,11 + x19,11 = 1
 c_2_12: x0,12 + x1,12 + x2,12 + x3,12 + x4,12 + x5,12 + x6,12 + x7,12
   + x8,12 + x9,12 + x10,12 + x11,12 + x13,12 + x14,12 + x15,12 + x16,12
   + x17,12 + x18,12 + x19,12 = 1
 c_2_13: x0,13 + x1,13 + x2,13 + x3,13 + x4,13 + x5,13 + x6,13 + x7,13
   + x8,13 + x9,13 + x10,13 + x11,13 + x12,13 + x14,13 + x15,13 + x16,13
   + x17,13 + x18,13 + x19,13 = 1
 c_2_14: x0,14 + x1,14 + x2,14 + x3,14 + x4,14 + x5,14 + x6,14 + x7,14
   + x8,14 + x9,14 + x10,14 + x11,14 + x12,14 + x13,14 + x15,14 + x16,14
   + x17,14 + x18,14 + x19,14 = 1
 c_2_15: x0,15 + x1,15 + x2,15 + x3,15 + x4,15 + x5,15 + x6,15 + x7,15
   + x8,15 + x9,15 + x10,15 + x11,15 + x12,15 + x13,15 + x14,15 + x16,15
   + x17,15 + x18,15 + x19,15 = 1
 c_2_16: x0,16 + x1,16 + x2,16 + x3,16 + x4,16 + x5,16 + x6,16 + x7,16
   + x8,16 + x9,16 + x10,16 + x11,16 + x12,16 + x13,16 + x14,16 + x15,16
   + x17,16 + x18,16 + x19,16 = 1
 c_2_17: x0,17 + x1,17 + x2,17 + x3,17 + x4,17 + x5,17 + x6,17 + x7,17
   + x8,17 + x9,17 + x10,17 + x11,17 + x12,17 + x13,17 + x14,17 + x15,17
   + x16,17 + x18,17 + x19,17 = 1
 c_2_18: x0,18 + x1,18 + x2,18 + x3,18 + x4,18 + x5,18 + x6,18 + x7,18
   + x8,18 + x9,18 + x10,18 + x11,18 + x12,18 + x13,18 + x14,18 + x15,18
   + x16,18 + x17,18 + x19,18 = 1
 c_2_19: x0,19 + x1,19 + x2,19 + x3,19 + x4,19 + x5,19 + x6,19 + x7,19
   + x8,19 + x9,19 + x10,19 + x11,19 + x12,19 + x13,19 + x14,19 + x15,19
   + x16,19 + x17,19 + x18,19 = 1
 c_n1: x0,1 + x0,3 + x1,0 + x1,3 + x3,0 + x3,1 <= 2
 c_n2: x0,1 + x0,3 + x1,0 + x1,3 + x3,0 + x3,1 <= 2
 c_n3: x2,4 + x4,2 <= 1
 c_n4: x0,1 + x0,3 + x1,0 + x1,3 + x3,0 + x3,1 <= 2
 c_n5: x2,4 + x4,2 <= 1
 c_n6: x5,7 + x5,9 + x7,5 + x7,9 + x9,5 + x9,7 <= 2
 c_n7: x5,7 + x5,9 + x7,5 + x7,9 + x9,5 + x9,7 <= 2
 c_n8: x5,7 + x5,9 + x7,5 + x7,9 + x9,5 + x9,7 <= 2
 c_n9: x10,11 + x10,12 + x11,10 + x11,12 + x12,10 + x12,11 <= 2
 c_n10: x10,11 + x10,12 + x11,10 + x11,12 + x12,10 + x12,11 <= 2
 c_n11: x10,11 + x10,12 + x11,10 + x11,12 + x12,10 + x12,11 <= 2
 c_n12: x13,16 + x16,13 <= 1
 c_n13: x14,15 + x15,14 <= 1
 c_n14: x14,15 + x15,14 <= 1
 c_n15: x13,16 + x16,13 <= 1
 c_n16: x17,18 + x18,17 <= 1
 c_n17: x17,18 + x18,17 <= 1
Bounds
 x0,1 <= 1
 x0,2 <= 1
 x0,3 <= 1
 x0,4 <= 1
 x0,5 <= 1
 x0,6 <= 1
 x0,7 <= 1
 x0,8 <= 1
 x0,9 <= 1
 x0,10 <= 1
 x0,11 <= 1
 x0,12 <= 1
 x0,13 <= 1
 x0,14 <= 1
 x0,15 <= 1
 x0,16 <= 1
 x0,17 <= 1
 x0,18 <= 1
 x0,19 <= 1
 x1,0 <= 1
 x1,2 <= 1
 x1,3 <= 1
 x1,4 <= 1
 x1,5 <= 1
 x1,6 <= 1
 x1,7 <= 1
 x1,8 <= 1
 x1,9 <= 1
 x1,10 <= 1
 x1,11 <= 1
 x1,12 <= 1
 x1,13 <= 1
 x1,14 <= 1
 x1,15 <= 1
 x1,16 <= 1
 x1,17 <= 1
 x1,18 <= 1
 x1,19 <= 1
 x2,0 <= 1
 x2,1 <= 1
 x2,3 <= 1
 x2,4 <= 1
 x2,5 <= 1
 x2,6 <= 1
 x2,7 <= 1
 x2,8 <= 1
 x2,9 <= 1
 x2,10 <= 1
 x2,11 <= 1
 x2,12 <= 1
 x2,13 <= 1
 x2,14 <= 1
 x2,15 <= 1
 x2,16 <= 1
 x2,17 <= 1
 x2,18 <= 1
 x2,19 <= 1
 x3,0 <= 1
 x3,1 <= 1
 x3,2 <= 1
 x3,4 <= 1
 x3,5 <= 1
 x3,6 <= 1
 x3,7 <= 1
 x3,8 <= 1
 x3,9 <= 1
 x3,10 <= 1
 x3,11 <= 1
 x3,12 <= 1
 x3,13 <= 1
 x3,14 <= 1
 x3,15 <= 1
 x3,16 <= 1
 x3,17 <= 1
 x3,18 <= 1
 x3,19 <= 1
 x4,0 <= 1
 x4,1 <= 1
 x4,2 <= 1
 x4,3 <= 1
 x4,5 <= 1
 x4,6 <= 1
 x4,7 <= 1
 x4,8 <= 1
 x4,9 <= 1
 x4,10 <= 1
 x4,11 <= 1
 x4,12 <= 1
 x4,13 <= 1
 x4,14 <= 1
 x4,15 <= 1
 x4,16 <= 1
 x4,17 <= 1
 x4,18 <= 1
 x4,19 <= 1
 x5,0 <= 1
 x5,1 <= 1
 x5,2 <= 1
 x5,3 <= 1
 x5,4 <= 1
 x5,6 <= 1
 x5,7 <= 1
 x5,8 <= 1
 x5,9 <= 1
 x5,10 <= 1
 x5,11 <= 1
 x5,12 <= 1
 x5,13 <= 1
 x5,14 <= 1
 x5,15 <= 1
 x5,16 <= 1
 x5,17 <= 1
 x5,18 <= 1
 x5,19 <= 1
 x6,0 <= 1
 x6,1 <= 1
 x6,2 <= 1
 x6,3 <= 1
 x6,4 <= 1
 x6,5 <= 1
 x6,7 <= 1
 x6,8 <= 1
 x6,9 <= 1
 x6,10 <= 1
 x6,11 <= 1
 x6,12 <= 1
 x6,13 <= 1
 x6,14 <= 1
 x6,15 <= 1
 x6,16 <= 1
 x6,17 <= 1
 x6,18 <= 1
 x6,19 <= 1
 x7,0 <= 1
 x7,1 <= 1
 x7,2 <= 1
 x7,3 <= 1
 x7,4 <= 1
 x7,5 <= 1
 x7,6 <= 1
 x7,8 <= 1
 x7,9 <= 1
 x7,10 <= 1
 x7,11 <= 1
 x7,12 <= 1
 x7,13 <= 1
 x7,14 <= 1
 x7,15 <= 1
 x7,16 <= 1
 x7,17 <= 1
 x7,18 <= 1
 x7,19 <= 1
 x8,0 <= 1
 x8,1 <= 1
 x8,2 <= 1
 x8,3 <= 1
 x8,4 <= 1
 x8,5 <= 1
 x8,6 <= 1
 x8,7 <= 1
 x8,9 <= 1
 x8,10 <= 1
 x8,11 <= 1
 x8,12 <= 1
 x8,13 <= 1
 x8,14 <= 1
 x8,15 <= 1
 x8,16 <= 1
 x8,17 <= 1
 x8,18 <= 1
 x8,19 <= 1
 x9,0 <= 1
 x9,1 <= 1
 x9,2 <= 1
 x9,3 <= 1
 x9,4 <= 1
 x9,5 <= 1
 x9,6 <= 1
 x9,7 <= 1
 x9,8 <= 1
 x9,10 <= 1
 x9,11 <= 1
 x9,12 <= 1
 x9,13 <= 1
 x9,14 <= 1
 x9,15 <= 1
 x9,16 <= 1
 x9,17 <= 1
 x9,18 <= 1
 x9,19 <= 1
 x10,0 <= 1
 x10,1 <= 1
 x10,2 <= 1
 x10,3 <= 1
 x10,4 <= 1
 x10,5 <= 1
 x10,6 <= 1
 x10,7 <= 1
 x10,8 <= 1
 x10,9 <= 1
 x10,11 <= 1
 x10,12 <= 1
 x10,13 <= 1
 x10,14 <= 1
 x10,15 <= 1
 x10,16 <= 1
 x10,17 <= 1
 x10,18 <= 1
 x10,19 <= 1
 x11,0 <= 1
 x11,1 <= 1
 x11,2 <= 1
 x11,3 <= 1
 x11,4 <= 1
 x11,5 <= 1
 x11,6 <= 1
 x11,7 <= 1
 x11,8 <= 1
 x11,9 <= 1
 x11,10 <= 1
 x11,12 <= 1
 x11,13 <= 1
 x11,14 <= 1
 x11,15 <= 1
 x11,16 <= 1
 x11,17 <= 1
 x11,18 <= 1
 x11,19 <= 1
 x12,0 <= 1
 x12,1 <= 1
 x12,2 <= 1
 x12,3 <= 1
 x12,4 <= 1
 x12,5 <= 1
 x12,6 <= 1
 x12,7 <= 1
 x12,8 <= 1
 x12,9 <= 1
 x12,10 <= 1
 x12,11 <= 1
 x12,13 <= 1
 x12,14 <= 1
 x12,15 <= 1
 x12,16 <= 1
 x12,17 <= 1
 x12,18 <= 1
 x12,19 <= 1
 x13,0 <= 1
 x13,1 <= 1
 x13,2 <= 1
 x13,3 <= 1
 x13,4 <= 1
 x13,5 <= 1
 x13,6 <= 1
 x13,7 <= 1
 x13,8 <= 1
 x13,9 <= 1
 x13,10 <= 1
 x13,11 <= 1
 x13,12 <= 1
 x13,14 <= 1
 x13,15 <= 1
 x13,16 <= 1
 x13,17 <= 1
 x13,18 <= 1
 x13,19 <= 1
 x14,0 <= 1
 x14,1 <= 1
 x14,2 <= 1
 x14,3 <= 1
 x14,4 <= 1
 x14,5 <= 1
 x14,6 <= 1
 x14,7 <= 1
 x14,8 <= 1
 x14,9 <= 1
 x14,10 <= 1
 x14,11 <= 1
 x14,12 <= 1
 x14,13 <= 1
 x14,15 <= 1
 x14,16 <= 1
 x14,17 <= 1
 x14,18 <= 1
 x14,19 <= 1
 x15,0 <= 1
 x15,1 <= 1
 x15,2 <= 1
 x15,3 <= 1
 x15,4 <= 1
 x15,5 <= 1
 x15,6 <= 1
 x15,7 <= 1
 x15,8 <= 1
 x15,9 <= 1
 x15,10 <= 1
 x15,11 <= 1
 x15,12 <= 1
 x15,13 <= 1
 x15,14 <= 1
 x15,16 <= 1
 x15,17 <= 1
 x15,18 <= 1
 x15,19 <= 1
 x16,0 <= 1
 x16,1 <= 1
 x16,2 <= 1
 x16,3 <= 1
 x16,4 <= 1
 x16,5 <= 1
 x16,6 <= 1
 x16,7 <= 1
 x16,8 <= 1
 x16,9 <= 1
 x16,10 <= 1
 x16,11 <= 1
 x16,12 <= 1
 x16,13 <= 1
 x16,14 <= 1
 x16,15 <= 1
 x16,17 <= 1
 x16,18 <= 1
 x16,19 <= 1
 x17,0 <= 1
 x17,1 <= 1
 x17,2 <= 1
 x17,3 <= 1
 x17,4 <= 1
 x17,5 <= 1
 x17,6 <= 1
 x17,7 <= 1
 x17,8 <= 1
 x17,9 <= 1
 x17,10 <= 1
 x17,11 <= 1
 x17,12 <= 1
 x17,13 <= 1
 x17,14 <= 1
 x17,15 <= 1
 x17,16 <= 1
 x17,18 <= 1
 x17,19 <= 1
 x18,0 <= 1
 x18,1 <= 1
 x18,2 <= 1
 x18,3 <= 1
 x18,4 <= 1
 x18,5 <= 1
 x18,6 <= 1
 x18,7 <= 1
 x18,8 <= 1
 x18,9 <= 1
 x18,10 <= 1
 x18,11 <= 1
 x18,12 <= 1
 x18,13 <= 1
 x18,14 <= 1
 x18,15 <= 1
 x18,16 <= 1
 x18,17 <= 1
 x18,19 <= 1
 x19,0 <= 1
 x19,1 <= 1
 x19,2 <= 1
 x19,3 <= 1
 x19,4 <= 1
 x19,5 <= 1
 x19,6 <= 1
 x19,7 <= 1
 x19,8 <= 1
 x19,9 <= 1
 x19,10 <= 1
 x19,11 <= 1
 x19,12 <= 1
 x19,13 <= 1
 x19,14 <= 1
 x19,15 <= 1
 x19,16 <= 1
 x19,17 <= 1
 x19,18 <= 1
Generals
 x0,1 x0,2 x0,3 x0,4 x0,5 x0,6 x0,7 x0,8 x0,9 x0,10 x0,11 x0,12 x0,13 x0,14
 x0,15 x0,16 x0,17 x0,18 x0,19 x1,0 x1,2 x1,3 x1,4 x1,5 x1,6 x1,7 x1,8 x1,9
 x1,10 x1,11 x1,12 x1,13 x1,14 x1,15 x1,16 x1,17 x1,18 x1,19 x2,0 x2,1 x2,3
 x2,4 x2,5 x2,6 x2,7 x2,8 x2,9 x2,10 x2,11 x2,12 x2,13 x2,14 x2,15 x2,16
 x2,17 x2,18 x2,19 x3,0 x3,1 x3,2 x3,4 x3,5 x3,6 x3,7 x3,8 x3,9 x3,10 x3,11
 x3,12 x3,13 x3,14 x3,15 x3,16 x3,17 x3,18 x3,19 x4,0 x4,1 x4,2 x4,3 x4,5
 x4,6 x4,7 x4,8 x4,9 x4,10 x4,11 x4,12 x4,13 x4,14 x4,15 x4,16 x4,17 x4,18
 x4,19 x5,0 x5,1 x5,2 x5,3 x5,4 x5,6 x5,7 x5,8 x5,9 x5,10 x5,11 x5,12 x5,13
 x5,14 x5,15 x5,16 x5,17 x5,18 x5,19 x6,0 x6,1 x6,2 x6,3 x6,4 x6,5 x6,7
 x6,8 x6,9 x6,10 x6,11 x6,12 x6,13 x6,14 x6,15 x6,16 x6,17 x6,18 x6,19 x7,0
 x7,1 x7,2 x7,3 x7,4 x7,5 x7,6 x7,8 x7,9 x7,10 x7,11 x7,12 x7,13 x7,14
 x7,15 x7,16 x7,17 x7,18 x7,19 x8,0 x8,1 x8,2 x8,3 x8,4 x8,5 x8,6 x8,7 x8,9
 x8,10 x8,11 x8,12 x8,13 x8,14 x8,15 x8,16 x8,17 x8,18 x8,19 x9,0 x9,1 x9,2
 x9,3 x9,4 x9,5 x9,6 x9,7 x9,8 x9,10 x9,11 x9,12 x9,13 x9,14 x9,15 x9,16
 x9,17 x9,18 x9,19 x10,0 x10,1 x10,2 x10,3 x10,4 x10,5 x10,6 x10,7 x10,8
 x10,9 x10,11 x10,12 x10,13 x10,14 x10,15 x10,16 x10,17 x10,18 x10,19 x11,0
 x11,1 x11,2 x11,3 x11,4 x11,5 x11,6 x11,7 x11,8 x11,9 x11,10 x11,12 x11,13
 x11,14 x11,15 x11,16 x11,17 x11,18 x11,19 x12,0 x12,1 x12,2 x12,3 x12,4
 x12,5 x12,6 x12,7 x12,8 x12,9 x12,10 x12,11 x12,13 x12,14 x12,15 x12,16
 x12,17 x12,18 x12,19 x13,0 x13,1 x13,2 x13,3 x13,4 x13,5 x13,6 x13,7 x13,8
 x13,9 x13,10 x13,11 x13,12 x13,14 x13,15 x13,16 x13,17 x13,18 x13,19 x14,0
 x14,1 x14,2 x14,3 x14,4 x14,5 x14,6 x14,7 x14,8 x14,9 x14,10 x14,11 x14,12
 x14,13 x14,15 x14,16 x14,17 x14,18 x14,19 x15,0 x15,1 x15,2 x15,3 x15,4
 x15,5 x15,6 x15,7 x15,8 x15,9 x15,10 x15,11 x15,12 x15,13 x15,14 x15,16
 x15,17 x15,18 x15,19 x16,0 x16,1 x16,2 x16,3 x16,4 x16,5 x16,6 x16,7 x16,8
 x16,9 x16,10 x16,11 x16,12 x16,13 x16,14 x16,15 x16,17 x16,18 x16,19 x17,0
 x17,1 x17,2 x17,3 x17,4 x17,5 x17,6 x17,7 x17,8 x17,9 x17,10 x17,11 x17,12
 x17,13 x17,14 x17,15 x17,16 x17,18 x17,19 x18,0 x18,1 x18,2 x18,3 x18,4
 x18,5 x18,6 x18,7 x18,8 x18,9 x18,10 x18,11 x18,12 x18,13 x18,14 x18,15
 x18,16 x18,17 x18,19 x19,0 x19,1 x19,2 x19,3 x19,4 x19,5 x19,6 x19,7 x19,8
 x19,9 x19,10 x19,11 x19,12 x19,13 x19,14 x19,15 x19,16 x19,17 x19,18
End
